
Gurobi 11.0.3 (linux64) logging started Mon Aug 25 15:04:36 2025

Set parameter LogFile to value "/home/yihong/Coding/OR_SUC/SUC_epstheta_results_bigM100000_thread4/case24_ieee_rts_theta0.1_epsilon0.1_gurobi_seed190000_num_gen100_N_WDR50_load_scaling_factor1_proposed_theta_T8quadra_cost_bc1.05.txt"
Set parameter TimeLimit to value 3600
Gurobi Optimizer version 11.0.3 build v11.0.3rc0 (linux64 - "Ubuntu 20.04.6 LTS")

CPU model: AMD EPYC 7532 32-Core Processor, instruction set [SSE2|AVX|AVX2]
Thread count: 64 physical cores, 128 logical processors, using up to 4 threads

Academic license 2399124 - for non-commercial use only - registered to yi___@ed.ac.uk
Optimize a model with 18804 rows, 9971 columns and 437334 nonzeros
Model fingerprint: 0xbc0ba443
Model has 800 quadratic constraints
Variable types: 9171 continuous, 800 integer (800 binary)
Coefficient statistics:
  Matrix range     [3e-04, 2e+03]
  QMatrix range    [2e-03, 8e-03]
  QLMatrix range   [3e-01, 6e+01]
  Objective range  [1e+00, 1e+00]
  Bounds range     [1e+00, 1e+00]
  RHS range        [1e+00, 9e+03]
Presolve removed 15429 rows and 4320 columns
Presolve time: 0.13s
Presolved: 3375 rows, 5651 columns, 19258 nonzeros
Presolved model has 800 quadratic constraint(s)
Variable types: 4851 continuous, 800 integer (800 binary)

Root relaxation: objective 8.582993e+03, 2537 iterations, 0.05 seconds (0.05 work units)

    Nodes    |    Current Node    |     Objective Bounds      |     Work
 Expl Unexpl |  Obj  Depth IntInf | Incumbent    BestBd   Gap | It/Node Time

H    0     0                    265645.83725 8582.99301  96.8%     -    0s
*    0     0               0    265645.83725 8582.99301  96.8%     -    0s
     0     0 136919.409    0  216 265645.837 136919.409  48.5%     -    0s
     0     0 242818.865    0   16 265645.837 242818.865  8.59%     -    0s
     0     0 242836.804    0   24 265645.837 242836.804  8.59%     -    0s
     0     0 242845.199    0   16 265645.837 242845.199  8.58%     -    0s
     0     0 242846.054    0   16 265645.837 242846.054  8.58%     -    0s
     0     0 242846.463    0   16 265645.837 242846.463  8.58%     -    0s
     0     2 242846.463    0   16 265645.837 242846.463  8.58%     -    0s
H   67    60                    242954.39796 242856.950  0.04%  10.5    1s
*   67    60              15    242954.39796 242856.950  0.04%  10.7    1s

Cutting planes:
  Gomory: 128
  Lift-and-project: 8
  Implied bound: 174
  MIR: 15
  Flow cover: 51
  RLT: 109
  Relax-and-lift: 49

Explored 76 nodes (7368 simplex iterations) in 1.43 seconds (1.18 work units)
Thread count was 4 (of 128 available processors)

Solution count 3: 242954 242954 265646 

Optimal solution found (tolerance 1.00e-03)
Warning: max constraint violation (1.0169e-07) exceeds tolerance
Best objective 2.429543979618e+05, best bound 2.428569499649e+05, gap 0.0401%

Gurobi 11.0.3 (linux64) logging started Mon Aug 25 15:04:38 2025

Set parameter LogFile to value "/home/yihong/Coding/OR_SUC/SUC_epstheta_results_bigM100000_thread4/case24_ieee_rts_theta0.1_epsilon0.1_gurobi_seed190000_num_gen100_N_WDR50_load_scaling_factor1_proposed_theta_T8quadra_cost_bc1.05.txt"
Set parameter TimeLimit to value 3600
Gurobi Optimizer version 11.0.3 build v11.0.3rc0 (linux64 - "Ubuntu 20.04.6 LTS")

CPU model: AMD EPYC 7532 32-Core Processor, instruction set [SSE2|AVX|AVX2]
Thread count: 64 physical cores, 128 logical processors, using up to 4 threads

Academic license 2399124 - for non-commercial use only - registered to yi___@ed.ac.uk
Optimize a model with 18805 rows, 9972 columns and 439815 nonzeros
Model fingerprint: 0xe9f2767f
Model has 800 quadratic constraints
Variable types: 9172 continuous, 800 integer (800 binary)
Coefficient statistics:
  Matrix range     [3e-04, 2e+03]
  QMatrix range    [2e-03, 8e-03]
  QLMatrix range   [3e-01, 6e+01]
  Objective range  [1e+00, 1e+00]
  Bounds range     [1e-01, 1e+00]
  RHS range        [1e+00, 3e+05]
Presolve removed 13992 rows and 3603 columns
Presolve time: 0.13s
Presolved: 4813 rows, 6369 columns, 25803 nonzeros
Presolved model has 800 quadratic constraint(s)
Variable types: 5565 continuous, 804 integer (804 binary)

Root relaxation: objective 1.007040e+01, 5342 iterations, 0.11 seconds (0.12 work units)

    Nodes    |    Current Node    |     Objective Bounds      |     Work
 Expl Unexpl |  Obj  Depth IntInf | Incumbent    BestBd   Gap | It/Node Time

     0     0   10.07040    0    -          -   10.07040      -     -    0s
     0     0    1.56955    0    8          -    1.56955      -     -    0s
     0     0    1.15040    0   16          -    1.15040      -     -    1s
     0     0    1.15040    0   16          -    1.15040      -     -    1s
     0     0    1.15040    0   16          -    1.15040      -     -    1s
     0     0    1.15035    0   16          -    1.15035      -     -    1s
H    0     0                       1.1254610    1.15035  2.21%     -    1s
     0     2    1.15035    0   16    1.12546    1.15035  2.21%     -    1s
H   27    32                       1.1472401    1.15020  0.26%  13.1    2s
H   32    26                       1.1475733    1.15020  0.23%  13.3    2s
*   32    26               9       1.1475733    1.15020  0.23%  14.6    2s
H   41    20                       1.1497257    1.15020  0.04%  12.0    2s
*   41    20               9       1.1497257    1.15020  0.04%  12.1    2s

Cutting planes:
  Lift-and-project: 17
  Implied bound: 5
  RLT: 1

Explored 46 nodes (10001 simplex iterations) in 2.60 seconds (2.42 work units)
Thread count was 4 (of 128 available processors)

Solution count 4: 1.14973 1.14757 1.14724 1.12546 

Optimal solution found (tolerance 1.00e-03)
Warning: max constraint violation (1.4261e-09) exceeds tolerance
Best objective 1.149725689622e+00, best bound 1.150203731329e+00, gap 0.0416%
